p cnf 23 10
e 1 2 0
a 3 4 0
e 5 0
a 6 7 8 0
e 9 10 11 0
a 12 13 0
e 14 15 0
a 16 17 0
e 18 0
a 19 0
e 20 21 0
a 22 23 0
-14 5 8 17 -22 0
-4 21 2 -17 0
-14 22 15 16 0
13 -21 -9 0
-19 -16 -9 -18 22 0
7 19 -1 0
-15 5 6 0
-19 -2 -15 3 6 0
-9 -8 -1 11 0
-16 -22 -8 -5 2 0
